Grasp exp. instance_n_20_m_5_id_2.lp tipoLifted 0 szPool 1 nIteration 50 alpha 1 
Academic license - for non-commercial use only
Read LP format model from file ../input/instancesGenerated/instance_n_20_m_5_id_2.lp
Reading time = 0.00 seconds
: 5 rows, 20 columns, 100 nonzeros
Optimize a model with 5 rows, 20 columns and 100 nonzeros
Variable types: 0 continuous, 20 integer (20 binary)
Coefficient statistics:
  Matrix range     [1e+00, 1e+01]
  Objective range  [1e+00, 1e+01]
  Bounds range     [1e+00, 1e+00]
  RHS range        [5e+01, 6e+01]
Found heuristic solution: objective 68.0000000

Explored 0 nodes (0 simplex iterations) in 0.00 seconds
Thread count was 1 (of 8 available processors)

Solution count 1: 68 
No other solutions better than 0

Solution limit reached
Best objective 6.800000000000e+01, best bound -, gap -
C_1:	 4.00 x_1  = 1.000000 + 9.00 x_2  = 0.000000 + 5.00 x_3  = 1.000000 + 10.00 x_4  = 0.000000 + 5.00 x_5  = 0.000000 + 4.00 x_6  = 1.000000 + 4.00 x_7  = 1.000000 + 2.00 x_8  = 1.000000 + 3.00 x_9  = 0.308131 + 1.00 x_10  = 0.196862 + 7.00 x_11  = 1.000000 + 4.00 x_12  = 1.000000 + 10.00 x_13  = 0.299572 + 6.00 x_14  = 0.000000 + 1.00 x_15  = 0.883024 + 10.00 x_16  = 1.000000 + 6.00 x_17  = 1.000000 + 9.00 x_18  = 0.000000 + 1.00 x_19  = 0.000000 + 2.00 x_20  = 0.000000 <= 51.00
C_2:	 6.00 x_1  = 1.000000 + 10.00 x_2  = 0.000000 + 10.00 x_3  = 1.000000 + 6.00 x_4  = 0.000000 + 8.00 x_5  = 0.000000 + 3.00 x_6  = 1.000000 + 6.00 x_7  = 1.000000 + 3.00 x_8  = 1.000000 + 6.00 x_9  = 0.308131 + 10.00 x_10  = 0.196862 + 7.00 x_11  = 1.000000 + 9.00 x_12  = 1.000000 + 1.00 x_13  = 0.299572 + 2.00 x_14  = 0.000000 + 1.00 x_15  = 0.883024 + 7.00 x_16  = 1.000000 + 7.00 x_17  = 1.000000 + 6.00 x_18  = 0.000000 + 9.00 x_19  = 0.000000 + 9.00 x_20  = 0.000000 <= 63.00
C_3:	 6.00 x_1  = 1.000000 + 7.00 x_2  = 0.000000 + 2.00 x_3  = 1.000000 + 5.00 x_4  = 0.000000 + 2.00 x_5  = 0.000000 + 4.00 x_6  = 1.000000 + 6.00 x_7  = 1.000000 + 9.00 x_8  = 1.000000 + 5.00 x_9  = 0.308131 + 6.00 x_10  = 0.196862 + 10.00 x_11  = 1.000000 + 2.00 x_12  = 1.000000 + 7.00 x_13  = 0.299572 + 9.00 x_14  = 0.000000 + 7.00 x_15  = 0.883024 + 4.00 x_16  = 1.000000 + 3.00 x_17  = 1.000000 + 3.00 x_18  = 0.000000 + 8.00 x_19  = 0.000000 + 9.00 x_20  = 0.000000 <= 57.00
C_4:	 4.00 x_1  = 1.000000 + 5.00 x_2  = 0.000000 + 9.00 x_3  = 1.000000 + 6.00 x_4  = 0.000000 + 8.00 x_5  = 0.000000 + 9.00 x_6  = 1.000000 + 3.00 x_7  = 1.000000 + 4.00 x_8  = 1.000000 + 4.00 x_9  = 0.308131 + 3.00 x_10  = 0.196862 + 4.00 x_11  = 1.000000 + 2.00 x_12  = 1.000000 + 9.00 x_13  = 0.299572 + 7.00 x_14  = 0.000000 + 8.00 x_15  = 0.883024 + 2.00 x_16  = 1.000000 + 2.00 x_17  = 1.000000 + 4.00 x_18  = 0.000000 + 1.00 x_19  = 0.000000 + 8.00 x_20  = 0.000000 <= 51.00
C_5:	 9.00 x_1  = 1.000000 + 2.00 x_2  = 0.000000 + 9.00 x_3  = 1.000000 + 6.00 x_4  = 0.000000 + 3.00 x_5  = 0.000000 + 6.00 x_6  = 1.000000 + 1.00 x_7  = 1.000000 + 5.00 x_8  = 1.000000 + 10.00 x_9  = 0.308131 + 9.00 x_10  = 0.196862 + 5.00 x_11  = 1.000000 + 5.00 x_12  = 1.000000 + 5.00 x_13  = 0.299572 + 4.00 x_14  = 0.000000 + 3.00 x_15  = 0.883024 + 2.00 x_16  = 1.000000 + 2.00 x_17  = 1.000000 + 5.00 x_18  = 0.000000 + 7.00 x_19  = 0.000000 + 8.00 x_20  = 0.000000 <= 53.00
Solution initial: 87.753210 
Number Constraints Used in Cover:5
GRASP Method!
Number cuts repeat: 0
value: 87.753210
Number Constraints Used in Cover:8
GRASP Method!
Number cuts repeat: 0
value: 87.753210
Number Constraints Used in Cover:8
GRASP Method!
Number cuts repeat: 0
value: 87.753210
Number Constraints Used in Cover:11
GRASP Method!
Number cuts repeat: 0
value: 87.753210
Number Constraints Used in Cover:14
GRASP Method!
Number cuts repeat: 0
value: 87.753210
Number Constraints Used in Cover:17
GRASP Method!
Number cuts repeat: 0
value: 87.753210
Number Constraints Used in Cover:20
GRASP Method!
Number cuts repeat: 0
value: 87.753210
Number Constraints Used in Cover:23
GRASP Method!
Number cuts repeat: 0
value: 87.753210
Number Constraints Used in Cover:26
GRASP Method!
Number cuts repeat: 0
value: 87.753210
Number Constraints Used in Cover:29
GRASP Method!
Number cuts repeat: 0
value: 87.753210
Number Constraints Used in Cover:32
GRASP Method!
Number cuts repeat: 0
value: 87.753210
Number Constraints Used in Cover:35
GRASP Method!
Number cuts repeat: 0
value: 87.753210
Number Constraints Used in Cover:38
GRASP Method!
Number cuts repeat: 0
value: 87.753210
Number Constraints Used in Cover:41
GRASP Method!
Number cuts repeat: 0
value: 87.753210
Number Constraints Used in Cover:44
GRASP Method!
Number cuts repeat: 0
value: 87.753210
Number Constraints Used in Cover:47
GRASP Method!
Number cuts repeat: 0
value: 87.753210
Number Constraints Used in Cover:50
GRASP Method!
Number cuts repeat: 0
value: 87.753210
Number Constraints Used in Cover:53
GRASP Method!
Number cuts repeat: 0
value: 87.753210
Number Constraints Used in Cover:56
GRASP Method!
Number cuts repeat: 0
value: 87.753210
Number Constraints Used in Cover:59
GRASP Method!
Number cuts repeat: 0
value: 87.753210
Number Constraints Used in Cover:62
GRASP Method!
Number cuts repeat: 0
value: 87.753210
Number Constraints Used in Cover:65
GRASP Method!
Number cuts repeat: 0
value: 87.753210
Number Constraints Used in Cover:68
GRASP Method!
Number cuts repeat: 0
value: 87.753210
Number Constraints Used in Cover:71
GRASP Method!
Number cuts repeat: 0
value: 87.753210
Number Constraints Used in Cover:74
GRASP Method!
Number cuts repeat: 0
value: 87.753210
Number Constraints Used in Cover:77
GRASP Method!
Number cuts repeat: 0
value: 87.753210
Number Constraints Used in Cover:80
GRASP Method!
Number cuts repeat: 0
value: 87.753210
Number Constraints Used in Cover:83
GRASP Method!
Number cuts repeat: 0
value: 87.753210
Number Constraints Used in Cover:86
GRASP Method!
Number cuts repeat: 0
value: 87.753210
Number Constraints Used in Cover:89
GRASP Method!
Number cuts repeat: 0
value: 87.753210
Number Constraints Used in Cover:92
GRASP Method!
Number cuts repeat: 0
value: 87.753210
Number Constraints Used in Cover:95
GRASP Method!
Number cuts repeat: 0
value: 87.753210
Number Constraints Used in Cover:98
GRASP Method!
Number cuts repeat: 0
value: 87.753210
Number Constraints Used in Cover:101
GRASP Method!
Number cuts repeat: 0
value: 87.753210
Number Constraints Used in Cover:104
GRASP Method!
Number cuts repeat: 0
value: 87.753210
Number Constraints Used in Cover:107
GRASP Method!
Number cuts repeat: 0
value: 87.753210
Number Constraints Used in Cover:110
GRASP Method!
Number cuts repeat: 0
value: 87.753210
Number Constraints Used in Cover:113
GRASP Method!
Number cuts repeat: 0
value: 87.753210
Number Constraints Used in Cover:116
GRASP Method!
Number cuts repeat: 0
value: 87.753210
Number Constraints Used in Cover:119
GRASP Method!
Number cuts repeat: 0
value: 87.753210
Number Constraints Used in Cover:122
GRASP Method!
Number cuts repeat: 0
value: 87.753210
Number Constraints Used in Cover:125
GRASP Method!
Number cuts repeat: 0
value: 87.753210
Number Constraints Used in Cover:128
GRASP Method!
Number cuts repeat: 0
value: 87.753210
Number Constraints Used in Cover:131
GRASP Method!
Number cuts repeat: 0
value: 87.753210
Number Constraints Used in Cover:134
GRASP Method!
Number cuts repeat: 0
value: 87.753210
Number Constraints Used in Cover:137
GRASP Method!
Number cuts repeat: 0
value: 87.753210
Number Constraints Used in Cover:140
GRASP Method!
Number cuts repeat: 0
value: 87.753210
Number Constraints Used in Cover:143
GRASP Method!
Number cuts repeat: 0
value: 87.753210
Number Constraints Used in Cover:146
GRASP Method!
Number cuts repeat: 0
value: 87.753210
Number Constraints Used in Cover:149
GRASP Method!
Number cuts repeat: 0
value: 87.753210
Number Constraints Used in Cover:152
GRASP Method!
Number cuts repeat: 0
value: 87.753210
Number Constraints Used in Cover:155
GRASP Method!
Number cuts repeat: 0
value: 87.753210
Number Constraints Used in Cover:158
GRASP Method!
Number cuts repeat: 0
value: 87.753210
Number Constraints Used in Cover:161
GRASP Method!
Number cuts repeat: 0
value: 87.753210
Number Constraints Used in Cover:164
GRASP Method!
Number cuts repeat: 0
value: 87.753210
Number Constraints Used in Cover:167
GRASP Method!
Number cuts repeat: 0
value: 87.753210
Number Constraints Used in Cover:170
GRASP Method!
Number cuts repeat: 0
value: 87.753210
Number Constraints Used in Cover:173
GRASP Method!
Number cuts repeat: 0
value: 87.753210
Number Constraints Used in Cover:176
GRASP Method!
Number cuts repeat: 0
value: 87.753210
Number Constraints Used in Cover:179
GRASP Method!
Number cuts repeat: 0
value: 87.753210
Number Constraints Used in Cover:182
GRASP Method!
Number cuts repeat: 0
value: 87.753210
Number Constraints Used in Cover:185
GRASP Method!
Number cuts repeat: 0
value: 87.753210
Number Constraints Used in Cover:188
GRASP Method!
Number cuts repeat: 0
value: 87.753210
Number Constraints Used in Cover:191
GRASP Method!
Number cuts repeat: 0
value: 87.753210
Number Constraints Used in Cover:194
GRASP Method!
Number cuts repeat: 0
value: 87.753210
Number Constraints Used in Cover:197
GRASP Method!
Number cuts repeat: 0
value: 87.753210
Number Constraints Used in Cover:200
GRASP Method!
Number cuts repeat: 0
value: 87.753210
Number Constraints Used in Cover:203
GRASP Method!
Number cuts repeat: 0
value: 87.753210
Number Constraints Used in Cover:206
GRASP Method!
Number cuts repeat: 0
value: 87.753210
Number Constraints Used in Cover:209
GRASP Method!
Number cuts repeat: 0
value: 87.753210
Number Constraints Used in Cover:212
GRASP Method!
Number cuts repeat: 0
value: 87.753210
Number Constraints Used in Cover:215
GRASP Method!
Number cuts repeat: 0
value: 87.753210
Number Constraints Used in Cover:218
GRASP Method!
Number cuts repeat: 0
value: 87.753210
Number Constraints Used in Cover:221
GRASP Method!
Number cuts repeat: 0
value: 87.753210
Number Constraints Used in Cover:224
GRASP Method!
Number cuts repeat: 0
value: 87.753210
Number Constraints Used in Cover:227
GRASP Method!
Number cuts repeat: 0
value: 87.753210
Number Constraints Used in Cover:230
GRASP Method!
Number cuts repeat: 0
value: 87.753210
Number Constraints Used in Cover:233
GRASP Method!
Number cuts repeat: 0
value: 87.753210
Number Constraints Used in Cover:236
GRASP Method!
Number cuts repeat: 0
value: 87.753210
Number Constraints Used in Cover:239
GRASP Method!
Number cuts repeat: 0
value: 87.753210
Number Constraints Used in Cover:242
GRASP Method!
Number cuts repeat: 0
value: 87.753210
Number Constraints Used in Cover:245
GRASP Method!
Number cuts repeat: 0
value: 87.753210
Number Constraints Used in Cover:248
GRASP Method!
Number cuts repeat: 0
value: 87.753210
Number Constraints Used in Cover:251
GRASP Method!
Number cuts repeat: 0
value: 87.753210
Number Constraints Used in Cover:254
GRASP Method!
Number cuts repeat: 0
value: 87.753210
Number Constraints Used in Cover:257
GRASP Method!
Number cuts repeat: 0
value: 87.753210
Number Constraints Used in Cover:260
GRASP Method!
Number cuts repeat: 0
value: 87.753210
Number Constraints Used in Cover:263
GRASP Method!
Number cuts repeat: 0
value: 87.753210
Number Constraints Used in Cover:266
GRASP Method!
Number cuts repeat: 0
value: 87.753210
Number Constraints Used in Cover:269
GRASP Method!
Number cuts repeat: 0
value: 87.753210
Number Constraints Used in Cover:272
GRASP Method!
Number cuts repeat: 0
value: 87.753210
Number Constraints Used in Cover:275
GRASP Method!
Number cuts repeat: 0
value: 87.753210
Number Constraints Used in Cover:278
GRASP Method!
Number cuts repeat: 0
value: 87.753210
Number Constraints Used in Cover:281
GRASP Method!
Number cuts repeat: 0
value: 87.753210
Number Constraints Used in Cover:284
GRASP Method!
Number cuts repeat: 0
value: 87.753210
Number Constraints Used in Cover:287
GRASP Method!
Number cuts repeat: 0
value: 87.753210
Number Constraints Used in Cover:290
GRASP Method!
Number cuts repeat: 0
value: 87.753210
Number Constraints Used in Cover:293
GRASP Method!
Number cuts repeat: 0
value: 87.753210
Number Constraints Used in Cover:296
GRASP Method!
Number cuts repeat: 0
value: 87.753210
Number Constraints Used in Cover:299
GRASP Method!
Number cuts repeat: 0
value: 87.753210
Number Constraints Used in Cover:302
GRASP Method!
Number cuts repeat: 0
value: 87.753210
Number Constraints Used in Cover:305
GRASP Method!
Number cuts repeat: 0
value: 87.753210
Number Constraints Used in Cover:308
GRASP Method!
Number cuts repeat: 0
value: 87.753210
Number Constraints Used in Cover:311
GRASP Method!
Number cuts repeat: 0
value: 87.753210
Number Constraints Used in Cover:314
GRASP Method!
Number cuts repeat: 0
value: 87.753210
Number Constraints Used in Cover:317
GRASP Method!
Number cuts repeat: 0
value: 87.753210
Number Constraints Used in Cover:320
GRASP Method!
Number cuts repeat: 0
value: 87.753210
Number Constraints Used in Cover:323
GRASP Method!
Number cuts repeat: 0
value: 87.753210
Number Constraints Used in Cover:326
GRASP Method!
Number cuts repeat: 0
value: 87.753210
Number Constraints Used in Cover:329
GRASP Method!
Number cuts repeat: 0
value: 87.753210
Number Constraints Used in Cover:332
GRASP Method!
Number cuts repeat: 0
value: 87.753210
Number Constraints Used in Cover:335
GRASP Method!
Number cuts repeat: 0
value: 87.753210
Number Constraints Used in Cover:338
GRASP Method!
Number cuts repeat: 0
value: 87.753210
Number Constraints Used in Cover:341
GRASP Method!
Number cuts repeat: 0
value: 87.753210
Number Constraints Used in Cover:344
GRASP Method!
Number cuts repeat: 0
value: 87.753210
Number Constraints Used in Cover:347
GRASP Method!
Number cuts repeat: 0
value: 87.753210
Number Constraints Used in Cover:350
GRASP Method!
Number cuts repeat: 0
value: 87.753210
Number Constraints Used in Cover:353
GRASP Method!
Number cuts repeat: 0
value: 87.753210
Number Constraints Used in Cover:356
GRASP Method!
Number cuts repeat: 0
value: 87.753210
Number Constraints Used in Cover:359
GRASP Method!
Number cuts repeat: 0
value: 87.753210
Number Constraints Used in Cover:362
GRASP Method!
Number cuts repeat: 0
value: 87.753210
Number Constraints Used in Cover:365
GRASP Method!
Number cuts repeat: 0
value: 87.753210
Number Constraints Used in Cover:368
GRASP Method!
Number cuts repeat: 0
value: 87.753210
Number Constraints Used in Cover:371
GRASP Method!
Number cuts repeat: 0
value: 87.753210
Number Constraints Used in Cover:374
GRASP Method!
Number cuts repeat: 0
value: 87.753210
Number Constraints Used in Cover:377
GRASP Method!
Number cuts repeat: 0
value: 87.753210
Number Constraints Used in Cover:380
GRASP Method!
Number cuts repeat: 0
value: 87.753210
Number Constraints Used in Cover:383
GRASP Method!
Number cuts repeat: 0
value: 87.753210
Number Constraints Used in Cover:386
GRASP Method!
Number cuts repeat: 0
value: 87.753210
Number Constraints Used in Cover:389
GRASP Method!
Number cuts repeat: 0
value: 87.753210
Number Constraints Used in Cover:392
GRASP Method!
Number cuts repeat: 0
value: 87.753210
Number Constraints Used in Cover:395
GRASP Method!
Number cuts repeat: 0
value: 87.753210
Number Constraints Used in Cover:398
GRASP Method!
Number cuts repeat: 0
value: 87.753210
Number Constraints Used in Cover:401
GRASP Method!
Number cuts repeat: 0
value: 87.753210
Number Constraints Used in Cover:404
GRASP Method!
Number cuts repeat: 0
value: 87.753210
Number Constraints Used in Cover:407
GRASP Method!
Number cuts repeat: 0
value: 87.753210
Number Constraints Used in Cover:409
GRASP Method!
Number cuts repeat: 0
value: 87.753210
Number Constraints Used in Cover:412
GRASP Method!
Number cuts repeat: 0
value: 87.753210
Number Constraints Used in Cover:415
GRASP Method!
Number cuts repeat: 0
value: 87.753210
Number Constraints Used in Cover:418
GRASP Method!
Number cuts repeat: 0
value: 87.753210
Number Constraints Used in Cover:421
GRASP Method!
Number cuts repeat: 0
value: 87.753210
Number Constraints Used in Cover:424
GRASP Method!
Number cuts repeat: 0
value: 87.753210
Number Constraints Used in Cover:427
GRASP Method!
Number cuts repeat: 0
value: 87.753210
Number Constraints Used in Cover:430
GRASP Method!
Number cuts repeat: 0
value: 87.753210
Number Constraints Used in Cover:433
GRASP Method!
Number cuts repeat: 0
value: 87.753210
Number Constraints Used in Cover:436
GRASP Method!
Number cuts repeat: 0
value: 87.753210
Number Constraints Used in Cover:439
GRASP Method!
Number cuts repeat: 0
value: 87.753210
Number Constraints Used in Cover:442
GRASP Method!
Number cuts repeat: 0
value: 87.753210
Number Constraints Used in Cover:445
GRASP Method!
Number cuts repeat: 0
value: 87.753210
Number Constraints Used in Cover:448
GRASP Method!
Number cuts repeat: 0
value: 87.753210
Number Constraints Used in Cover:451
GRASP Method!
Number cuts repeat: 0
value: 87.753210
Number Constraints Used in Cover:454
GRASP Method!
Number cuts repeat: 0
value: 87.753210
Number Constraints Used in Cover:457
GRASP Method!
Number cuts repeat: 0
value: 87.753210
Number Constraints Used in Cover:460
GRASP Method!
Number cuts repeat: 0
value: 87.753210
Number Constraints Used in Cover:463
GRASP Method!
Number cuts repeat: 0
value: 87.753210
Number Constraints Used in Cover:466
GRASP Method!
Number cuts repeat: 0
value: 87.753210
Number Constraints Used in Cover:469
GRASP Method!
Number cuts repeat: 0
value: 87.753210
Number Constraints Used in Cover:472
GRASP Method!
Number cuts repeat: 0
value: 87.753210
Number Constraints Used in Cover:475
GRASP Method!
Number cuts repeat: 0
value: 87.753210
Number Constraints Used in Cover:478
GRASP Method!
Number cuts repeat: 0
value: 87.753210
Number Constraints Used in Cover:481
GRASP Method!
Number cuts repeat: 0
value: 87.753210
Number Constraints Used in Cover:484
GRASP Method!
Number cuts repeat: 0
value: 87.753210
Number Constraints Used in Cover:487
GRASP Method!
Number cuts repeat: 0
value: 87.753210
Number Constraints Used in Cover:489
GRASP Method!
Number cuts repeat: 0
value: 87.753210
Number Constraints Used in Cover:492
GRASP Method!
Number cuts repeat: 0
value: 87.753210
Number Constraints Used in Cover:495
GRASP Method!
Number cuts repeat: 0
value: 87.753210
Number Constraints Used in Cover:498
GRASP Method!
Number cuts repeat: 0
value: 87.753210
Number Constraints Used in Cover:501
GRASP Method!
Number cuts repeat: 0
value: 87.753210
Number Constraints Used in Cover:503
GRASP Method!
Number cuts repeat: 0
value: 87.753210
Number Constraints Used in Cover:506
GRASP Method!
Number cuts repeat: 0
value: 87.753210
Number Constraints Used in Cover:509
GRASP Method!
Number cuts repeat: 0
value: 87.753210
Number Constraints Used in Cover:512
GRASP Method!
Number cuts repeat: 0
value: 87.753210
Number Constraints Used in Cover:515
GRASP Method!
Number cuts repeat: 0
value: 87.753210
Number Constraints Used in Cover:518
GRASP Method!
Number cuts repeat: 0
value: 87.753210
Number Constraints Used in Cover:521
GRASP Method!
Number cuts repeat: 0
value: 87.753210
Number Constraints Used in Cover:524
GRASP Method!
Number cuts repeat: 0
value: 87.753210
Number Constraints Used in Cover:527
GRASP Method!
Number cuts repeat: 0
value: 87.753210
Number Constraints Used in Cover:530
GRASP Method!
Number cuts repeat: 0
value: 87.753210
Number Constraints Used in Cover:533
GRASP Method!
Number cuts repeat: 0
value: 87.753210
Number Constraints Used in Cover:536
GRASP Method!
Number cuts repeat: 0
value: 87.753210
Number Constraints Used in Cover:539
GRASP Method!
Number cuts repeat: 0
value: 87.753210
Number Constraints Used in Cover:542
GRASP Method!
Number cuts repeat: 0
value: 87.753210
Number Constraints Used in Cover:545
GRASP Method!
Number cuts repeat: 0
value: 87.753210
Number Constraints Used in Cover:548
GRASP Method!
Number cuts repeat: 0
value: 87.753210
Number Cuts Final: 546
